NAME: belgium-ambiance-24
TYPE: TSP
COMMENT: Belgium Ambiance 
DIMENSION: 24
EDGE_WEIGHT_TYPE: GEO
DISPLAY_DATA_TYPE: COORD_DISPLAY
NODE_COORD_SECTION
 1 50.7810151 5.4648131 0 0 Mal
 2 51.0538286 3.7250121 0 0 Ghent
 3 51.0350559 4.4150058 0 0 Leest
 4 51.1319137 5.4546268 0 0 Peer
 5 51.008056 5.583915 0 0 As
 6 51.000156 3.326531 0 0 Tielt
 7 50.767928 4.276887 0 0 Lot
 8 51.074952 4.288779 0 0 Puurs
 9 51.127381 4.497515 0 0 Lint
 10 51.340004 3.239678 0 0 Heist
 11 51.1017566 4.4129446 0 0 Reet
 12 51.1417984 5.5985009 0 0 Bree
 13 51.0248817 4.6908515 0 0 Schriek
 14 51.1610826 4.9903187 0 0 Geel
 15 50.9921686 5.7355142 0 0 Leut
 16 51.311084 4.2645971 0 0 Doel
 17 51.0957176 4.5061988 0 0 Duffel
 18 51.15689 4.04172 0 0 Sinaai
 19 50.8091426 4.3177512 0 0 Vorst
 20 51.1098649 4.3303396 0 0 Niel
 21 50.922446 3.968048 0 0 Mere
 22 50.997578 3.099906 0 0 Gits
 23 51.086235 4.366447 0 0 Boom
 24 50.978972 4.641269 0 0 Haacht
EOF
